40129 21687
46170 24982
58136 38087
22450 2122
19818 39770
19320 25187
29472 29663
45837 58679
63472 43797
13860 21127
18330 4187
20223 45127
325 63769
3637 19521
3670 57976
57513 14940
54381 23815
12936 17904
37878 54427
44985 2154
18097 31638
